64 65 66 67 74 75 76 79 83 84 89 90 93 93 98 98 107 107 108 108 109 110 118 120 122 126 128 129 132 134 145 147 151 153 156 156 157 157 161 162 163 166 166 167 169 170 171 176 180 180 180 184 185 186 187 194 195 196 199 203 204 209 210 213 213 218 218 227 227 228 228 229 230 238 240 242 246 248 249 252 254 265 267 271 273 276 276 277 277 281 282 283 286 286 287 289 290 291 296 300 300 300